c description: Random 2-CNF over 15 variables and 15 clauses
c generator: CNFgen (0.9.0)
c copyright: (C) 2012-2020 Massimo Lauria <massimo.lauria@uniroma1.it>
c url: https://massimolauria.net/cnfgen
c
p cnf 15 15
-8 -10 0
2 11 0
1 -8 0
5 -9 0
-1 -9 0
-4 -11 0
11 -14 0
-12 13 0
2 -4 0
11 13 0
5 -8 0
12 -14 0
-9 15 0
-7 13 0
-1 -15 0